


















































































12 66 
48 71 22 
33 35 
8 34 
11 19 61 
43 54 
58 6 31 
69 23 
65 2 
24 56 0 
55 18 
73 47 16 
42 40 76 
46 9 
3 4 20 
67 13 26 
1 37 74 
75 39 28 
62 60 
29 64 
44 52 
63 36 
7 50 
41 68 38 
72 53 
51 32 21 
70 27 
5 14 
30 10 15 
17 25 
57 45 
59 49 
